
Gurobi 10.0.1 (win64, Python) logging started Sun Mar 19 02:12:45 2023

Set parameter LogFile to value "gurobi.log"

Gurobi 10.0.1 (win64, Python) logging started Sun Mar 19 02:20:03 2023

Set parameter LogFile to value "gurobi.log"
